12
0 76 68 43 38 14 42 27 82 77 37 11 
53 0 30 96 37 16 64 94 58 31 99 96 
59 52 0 71 17 80 63 86 99 77 32 71 
82 33 63 0 20 66 48 53 27 31 36 86 
36 68 24 70 0 2 38 95 44 87 90 62 
9 65 78 5 25 0 47 82 35 60 63 69 
1 87 9 95 28 17 0 15 1 40 48 50 
53 11 34 41 50 87 1 0 29 18 100 83 
22 86 90 21 64 17 41 98 0 47 73 50 
19 19 35 78 42 98 29 56 31 0 56 33 
15 89 62 23 19 1 74 95 17 28 0 66 
92 30 90 9 44 33 35 17 34 44 57 0 
